
<<< setup


<<< generate

Version identifier: 12.10.0.0 | 2019-11-26 | 843d4de2ae
CPXPARAM_TimeLimit                               1200
Tried aggregator 3 times.
MIP Presolve eliminated 5161829 rows and 2930491 columns.
MIP Presolve modified 418464 coefficients.
Aggregator did 994 substitutions.
Reduced MIP has 80227 rows, 80065 columns, and 506365 nonzeros.
Reduced MIP has 80015 binaries, 0 generals, 0 SOSs, and 0 indicators.
Presolve time = 7.67 sec. (4625.89 ticks)
Found incumbent of value 4697.000000 after 12.64 sec. (6195.26 ticks)
Probing fixed 2168 vars, tightened 0 bounds.
Probing time = 28.92 sec. (6354.14 ticks)
Cover probing fixed 1 vars, tightened 0 bounds.
Tried aggregator 2 times.
Detecting symmetries...
MIP Presolve eliminated 2168 rows and 2169 columns.
Aggregator did 1 substitutions.
Reduced MIP has 78058 rows, 77895 columns, and 492068 nonzeros.
Reduced MIP has 77845 binaries, 0 generals, 0 SOSs, and 0 indicators.
Presolve time = 0.64 sec. (322.76 ticks)
Probing time = 0.19 sec. (43.93 ticks)
Clique table members: 275323.
MIP emphasis: balance optimality and feasibility.
MIP search method: dynamic search.
Parallel mode: deterministic, using up to 4 threads.
Root relaxation solution time = 1.05 sec. (813.23 ticks)

        Nodes                                         Cuts/
   Node  Left     Objective  IInf  Best Integer    Best Bound    ItCnt     Gap

*     0+    0                         4697.0000   139030.0000              --- 
      0     0    75854.0000   328     4697.0000    75854.0000     3264     --- 
      0     0    75854.0000   328     4697.0000    MIRcuts: 2     3267     --- 
      0     0    75854.0000   328     4697.0000    Cuts: 8893     5720     --- 
      0     0    75854.0000   328     4697.0000     Cuts: 629    13149     --- 
*     0+    0                         9462.0000    75854.0000           701.67%
*     0+    0                        47419.0000    75854.0000            59.97%
      0     0        cutoff          47419.0000    75854.0000    13149   59.97%
Detecting symmetries...
      0     2    75854.0000   144    47419.0000    75854.0000    13149   59.97%
Elapsed time = 126.26 sec. (66889.31 ticks, tree = 0.02 MB, solutions = 3)
      1     3    75854.0000   312    47419.0000    75854.0000    20646   59.97%
      2     4    75854.0000   315    47419.0000    75854.0000    31534   59.97%
      3     4    75854.0000   277    47419.0000    75854.0000    22206   59.97%
      4     5    75854.0000   373    47419.0000    75854.0000    43223   59.97%
      5     6    75854.0000   349    47419.0000    75854.0000    41078   59.97%
      7     8    75854.0000   355    47419.0000    75854.0000    55226   59.97%
      8     7    75854.0000   246    47419.0000    75854.0000    60973   59.97%
      9     5    75854.0000   293    47419.0000    75854.0000    41221   59.97%
     10    10    75854.0000   250    47419.0000    75854.0000    84321   59.97%
     12    11    75854.0000   325    47419.0000    75854.0000   106908   59.97%
Elapsed time = 177.22 sec. (89029.24 ticks, tree = 0.12 MB, solutions = 3)
     13     9    75854.0000   323    47419.0000    75854.0000    80993   59.97%
     14    14    75854.0000   326    47419.0000    75854.0000   146716   59.97%
     17    15    75854.0000   326    47419.0000    75854.0000   148972   59.97%
     18    16    75854.0000   304    47419.0000    75854.0000   149610   59.97%
     21    20    75854.0000   260    47419.0000    75854.0000   239870   59.97%
     22    16    75854.0000   320    47419.0000    75854.0000   179608   59.97%
     23    17    75854.0000   293    47419.0000    75854.0000   168879   59.97%
     24    21    75854.0000   307    47419.0000    75854.0000   251502   59.97%
     25    19    75854.0000   309    47419.0000    75854.0000   210137   59.97%
     26    25    75854.0000   318    47419.0000    75854.0000   277374   59.97%
Elapsed time = 329.14 sec. (126372.32 ticks, tree = 0.36 MB, solutions = 3)
     30    27    75854.0000   297    47419.0000    75854.0000   279675   59.97%
     31    24    75854.0000   291    47419.0000    75854.0000   276128   59.97%
     33    29    75854.0000   268    47419.0000    75854.0000   290278   59.97%
     35    34    75854.0000   321    47419.0000    75854.0000   307079   59.97%
     37    28    75854.0000   325    47419.0000    75854.0000   289936   59.97%
     39    30    75854.0000   215    47419.0000    75854.0000   304411   59.97%
     41    37    75854.0000   498    47419.0000    75854.0000   319295   59.97%
     42    38    75854.0000   322    47419.0000    75854.0000   321542   59.97%
     45    42    75854.0000   308    47419.0000    75854.0000   322793   59.97%
     46    31    75854.0000   341    47419.0000    75854.0000   314142   59.97%
Elapsed time = 388.22 sec. (145049.53 ticks, tree = 0.52 MB, solutions = 3)
     49    43    75854.0000   381    47419.0000    75854.0000   335013   59.97%
     51    45    75854.0000   246    47419.0000    75854.0000   336033   59.97%
     54    47    75854.0000   254    47419.0000    75854.0000   337281   59.97%
     56    45    75854.0000   302    47419.0000    75854.0000   359291   59.97%
     59    46    75854.0000   379    47419.0000    75854.0000   368191   59.97%
     60    52    75854.0000   389    47419.0000    75854.0000   423011   59.97%
     61    50    75854.0000   368    47419.0000    75854.0000   410687   59.97%
     63    48    75854.0000   209    47419.0000    75854.0000   401874   59.97%
     64    54    75854.0000   428    47419.0000    75854.0000   437863   59.97%
     65    57    75854.0000   366    47419.0000    75854.0000   471979   59.97%
Elapsed time = 469.75 sec. (171931.23 ticks, tree = 4.81 MB, solutions = 3)
     67    49    75854.0000   251    47419.0000    75854.0000   339543   59.97%
     68    58    75854.0000   219    47419.0000    75854.0000   479704   59.97%
     70    60    75854.0000   334    47419.0000    75854.0000   500545   59.97%
     71    61    75854.0000   283    47419.0000    75854.0000   512444   59.97%
     73    62    75854.0000   337    47419.0000    75854.0000   513085   59.97%
     75    68    75854.0000   596    47419.0000    75854.0000   526392   59.97%
     77    71    75854.0000   451    47419.0000    75854.0000   535706   59.97%
     79    78    75854.0000   314    47419.0000    75854.0000   581859   59.97%
     80    70    75854.0000   338    47419.0000    75854.0000   533272   59.97%
     82    72    75854.0000   563    47419.0000    75854.0000   538396   59.97%
Elapsed time = 513.75 sec. (189471.61 ticks, tree = 9.92 MB, solutions = 3)
     83    82    75854.0000   262    47419.0000    75854.0000   610231   59.97%
     86    74    75854.0000   220    47419.0000    75854.0000   562310   59.97%
     89    73    75854.0000   443    47419.0000    75854.0000   543598   59.97%
     91    83    75854.0000   551    47419.0000    75854.0000   626784   59.97%
     92    81    75854.0000   388    47419.0000    75854.0000   600397   59.97%
     94    76    75854.0000   215    47419.0000    75854.0000   577686   59.97%
     96    84    75854.0000   347    47419.0000    75854.0000   633148   59.97%
    100    92    75854.0000   218    47419.0000    75854.0000   675093   59.97%
    101    90    75854.0000   520    47419.0000    75854.0000   649187   59.97%
    103    91    75854.0000   389    47419.0000    75854.0000   652213   59.97%
Elapsed time = 559.05 sec. (207187.93 ticks, tree = 11.64 MB, solutions = 3)
    106    93    75854.0000   293    47419.0000    75854.0000   654524   59.97%
    107    97    75854.0000   273    47419.0000    75854.0000   703089   59.97%
    109    94    75854.0000   417    47419.0000    75854.0000   661086   59.97%
    110    88    75854.0000   597    47419.0000    75854.0000   648185   59.97%
    113    99    75854.0000   304    47419.0000    75854.0000   710450   59.97%
    116   101    75854.0000   486    47419.0000    75854.0000   721160   59.97%
    121   100    75854.0000   319    47419.0000    75854.0000   671751   59.97%
    124   115    75854.0000   488    47419.0000    75854.0000   750665   59.97%
    128   125    75854.0000   283    47419.0000    75854.0000   814454   59.97%
    131   116    75854.0000   250    47419.0000    75854.0000   754681   59.97%
Elapsed time = 601.06 sec. (223466.16 ticks, tree = 19.65 MB, solutions = 3)
    137   119    75854.0000   230    47419.0000    75854.0000   791707   59.97%
    138   129    75854.0000   289    47419.0000    75854.0000   818467   59.97%
    140   118    75854.0000   366    47419.0000    75854.0000   760418   59.97%
    142   131    75854.0000   287    47419.0000    75854.0000   824752   59.97%
    146   121    75854.0000   237    47419.0000    75854.0000   804605   59.97%
    149   133    75854.0000   230    47419.0000    75854.0000   830016   59.97%
    151   121    75854.0000   489    47419.0000    75854.0000   764590   59.97%
    154   122    75854.0000   231    47419.0000    75854.0000   810016   59.97%
    158   137    75854.0000   274    47419.0000    75854.0000   862053   59.97%
    161   137    75854.0000   290    47419.0000    75854.0000   836356   59.97%
Elapsed time = 631.89 sec. (237193.05 ticks, tree = 27.56 MB, solutions = 3)
    164   139    75854.0000   295    47419.0000    75854.0000   897278   59.97%
    169   139    75854.0000   306    47419.0000    75854.0000   866742   59.97%
    173   141    75854.0000   277    47419.0000    75854.0000   868326   59.97%
    175   158    75854.0000   236    47419.0000    75854.0000   920693   59.97%
    178   160    75854.0000   239    47419.0000    75854.0000   921820   59.97%
    185   145    75854.0000   165    47419.0000    75854.0000   874146   59.97%
    190   145    75854.0000   149    47419.0000    75854.0000   874199   59.97%
    196   133    75854.0000   315    47419.0000    75854.0000   850614   59.97%
    198   163    75854.0000   153    47419.0000    75854.0000   922866   59.97%
    199   164    75854.0000   192    47419.0000    75854.0000   923986   59.97%
Elapsed time = 666.88 sec. (250522.31 ticks, tree = 42.44 MB, solutions = 3)
    205   165    75854.0000   216    47419.0000    75854.0000   924653   59.97%
    207   166    75854.0000   203    47419.0000    75854.0000   925603   59.97%
    216   166    75854.0000   223    47419.0000    75854.0000   932573   59.97%
    230   164    infeasible          47419.0000    75854.0000   928040   59.97%
    232   165    75854.0000   163    47419.0000    75854.0000   928219   59.97%
    234   190    infeasible          47419.0000    75854.0000  1003513   59.97%
    236   165    75854.0000   217    47419.0000    75854.0000   932911   59.97%
    237   166    75854.0000   235    47419.0000    75854.0000   934262   59.97%
    239   184    75854.0000   264    47419.0000    75854.0000   996189   59.97%
    242   169    75854.0000   217    47419.0000    75854.0000   942449   59.97%
Elapsed time = 751.94 sec. (268861.20 ticks, tree = 40.25 MB, solutions = 3)
    246   175    75854.0000   268    47419.0000    75854.0000   961606   59.97%
    249   196    75854.0000   317    47419.0000    75854.0000  1019945   59.97%
    252   197    75854.0000   289    47419.0000    75854.0000  1021903   59.97%
    256   190    75854.0000   266    47419.0000    75854.0000  1014890   59.97%
    258   194    75854.0000   295    47419.0000    75854.0000  1021189   59.97%
    261   193    75854.0000   299    47419.0000    75854.0000  1043647   59.97%
    262   192    infeasible          47419.0000    75854.0000  1044500   59.97%
    263   196    75854.0000   264    47419.0000    75854.0000  1050891   59.97%
    276   205    75854.0000   333    47419.0000    75854.0000  1090565   59.97%
    336   216    75854.0000   174    47419.0000    75854.0000  1102843   59.97%
Elapsed time = 940.73 sec. (318724.61 ticks, tree = 61.17 MB, solutions = 3)
    394   216    75854.0000    96    47419.0000    75854.0000  1105521   59.97%
    435   211    infeasible          47419.0000    75854.0000  1098616   59.97%
    448   218    75854.0000   152    47419.0000    75854.0000  1109464   59.97%
    499   223    75854.0000   100    47419.0000    75854.0000  1112514   59.97%
    590   208    75854.0000   333    47419.0000    75854.0000  1109062   59.97%
    685   220    75854.0000    92    47419.0000    75854.0000  1116329   59.97%
    730   231    75854.0000   109    47419.0000    75854.0000  1167994   59.97%
    814   230    75854.0000   121    47419.0000    75854.0000  1169869   59.97%
    869   231    75854.0000   151    47419.0000    75854.0000  1172701   59.97%
    963   236    75854.0000   133    47419.0000    75854.0000  1163471   59.97%
Elapsed time = 1047.44 sec. (358072.12 ticks, tree = 70.24 MB, solutions = 3)
   1058   232    75854.0000    90    47419.0000    75854.0000  1177463   59.97%
*  1124+  229                        51007.0000    75854.0000            48.71%
   1124   231    75854.0000   148    51007.0000    75854.0000  1180459   48.71%
   1192   239    75854.0000   124    51007.0000    75854.0000  1174880   48.71%
   1227   273    75854.0000   160    51007.0000    75854.0000  1296409   48.71%
Starting limited solution polishing.
   1290   274    75854.0000   154    51007.0000    75854.0000  1299547   48.71%
   1344   275    75854.0000    54    51007.0000    75854.0000  1302024   48.71%
   1383   258    75854.0000   725    51007.0000    75854.0000  1287771   48.71%
*  1384+  272                        54431.0000    75854.0000            39.36%
   1447   282    75854.0000   276    54431.0000    75854.0000  1362810   39.36%
   1475   295    75854.0000   210    54431.0000    75854.0000  1377603   39.36%
   1486   301    75854.0000   227    54431.0000    75854.0000  1383011   39.36%
Elapsed time = 1146.69 sec. (397966.99 ticks, tree = 99.98 MB, solutions = 5)
   1502   302    75854.0000   159    54431.0000    75854.0000  1387321   39.36%
   1539   322    75854.0000   112    54431.0000    75854.0000  1417131   39.36%
*  1623+  305                        54930.0000    75854.0000            38.09%
   1625   313    75854.0000   151    54930.0000    75854.0000  1406577   38.09%
   1745   329    75854.0000   114    54930.0000    75854.0000  1442628   38.09%
*  1782+  328                        55360.0000    75854.0000            37.02%
*  1808+  322                        56951.0000    75854.0000            33.19%
   1812   331    75854.0000    98    56951.0000    75854.0000  1444357   33.19%
*  1850+  322                        58774.0000    75854.0000            29.06%
   1910   339    75854.0000    66    58774.0000    75854.0000  1447175   29.06%
*  1923+  337                        62617.0000    75854.0000            21.14%

Implied bound cuts applied:  574
Flow cuts applied:  2
Mixed integer rounding cuts applied:  289

Root node processing (before b&c):
  Real time             =  125.45 sec. (66605.53 ticks)
Parallel b&c, 4 threads:
  Real time             = 1075.84 sec. (356968.92 ticks)
  Sync time (average)   =  151.43 sec.
  Wait time (average)   =    0.00 sec.
                          ------------
Total (root+branch&cut) = 1201.30 sec. (423574.46 ticks)

<<< solve


OBJECTIVE: 62617

<<< post process


<<< done

